column=10;
row=10;
Board=[|0,0,5,0,4,6,0,0,0,0|0,0,0,0,0,0,0,0,0,0|0,0,0,0,0,0,0,1,0,0|0,0,0,0,0,0,0,0,0,0|0,0,2,0,0,3,0,1,0,3|1,0,0,0,0,0,0,0,0,0|0,0,3,0,0,0,0,0,0,0|0,0,0,0,0,0,0,0,0,0|0,0,0,0,0,0,0,0,0,0|0,0,0,0,0,0,0,0,0,0|];
Lighthouse=[|-1,-1,-1,-1,-1,-1,-1,-1,-1,8|-1,-1,-1,-1,-1,-1,-1,-1,-1,-1|-1,-1,-1,-1,-1,-1,-1,-1,-1,-1|-1,-1,-1,-1,-1,-1,-1,-1,-1,-1|-1,-1,-1,-1,-1,-1,-1,-1,-1,-1|-1,-1,-1,-1,-1,-1,-1,-1,-1,-1|-1,-1,-1,-1,-1,-1,-1,-1,-1,-1|-1,-1,-1,-1,-1,-1,1,-1,-1,-1|-1,-1,4,-1,-1,-1,-1,-1,-1,2|2,-1,-1,-1,2,-1,1,-1,-1,-1|];
